c description: Tseitin formula on Random 4-regular graph of 19 vertices, with odd charge
c generator: CNFgen (0.9.2)
c copyright: (C) 2012-2022 Massimo Lauria <massimo.lauria@uniroma1.it>
c url: https://massimolauria.net/cnfgen
c command line: cnfgen tseitin 19
c
p cnf 38 152
1 2 3 4 0
1 2 -3 -4 0
1 -2 3 -4 0
1 -2 -3 4 0
-1 2 3 -4 0
-1 2 -3 4 0
-1 -2 3 4 0
-1 -2 -3 -4 0
5 6 7 -8 0
5 6 -7 8 0
5 -6 7 8 0
5 -6 -7 -8 0
-5 6 7 8 0
-5 6 -7 -8 0
-5 -6 7 -8 0
-5 -6 -7 8 0
9 10 11 12 0
9 10 -11 -12 0
9 -10 11 -12 0
9 -10 -11 12 0
-9 10 11 -12 0
-9 10 -11 12 0
-9 -10 11 12 0
-9 -10 -11 -12 0
9 13 14 -15 0
9 13 -14 15 0
9 -13 14 15 0
9 -13 -14 -15 0
-9 13 14 15 0
-9 13 -14 -15 0
-9 -13 14 -15 0
-9 -13 -14 15 0
5 13 16 -17 0
5 13 -16 17 0
5 -13 16 17 0
5 -13 -16 -17 0
-5 13 16 17 0
-5 13 -16 -17 0
-5 -13 16 -17 0
-5 -13 -16 17 0
1 18 19 -20 0
1 18 -19 20 0
1 -18 19 20 0
1 -18 -19 -20 0
-1 18 19 20 0
-1 18 -19 -20 0
-1 -18 19 -20 0
-1 -18 -19 20 0
2 10 21 22 0
2 10 -21 -22 0
2 -10 21 -22 0
2 -10 -21 22 0
-2 10 21 -22 0
-2 10 -21 22 0
-2 -10 21 22 0
-2 -10 -21 -22 0
16 23 24 -25 0
16 23 -24 25 0
16 -23 24 25 0
16 -23 -24 -25 0
-16 23 24 25 0
-16 23 -24 -25 0
-16 -23 24 -25 0
-16 -23 -24 25 0
6 21 26 -27 0
6 21 -26 27 0
6 -21 26 27 0
6 -21 -26 -27 0
-6 21 26 27 0
-6 21 -26 -27 0
-6 -21 26 -27 0
-6 -21 -26 27 0
11 23 28 29 0
11 23 -28 -29 0
11 -23 28 -29 0
11 -23 -28 29 0
-11 23 28 -29 0
-11 23 -28 29 0
-11 -23 28 29 0
-11 -23 -28 -29 0
7 12 17 -24 0
7 12 -17 24 0
7 -12 17 24 0
7 -12 -17 -24 0
-7 12 17 24 0
-7 12 -17 -24 0
-7 -12 17 -24 0
-7 -12 -17 24 0
18 22 30 31 0
18 22 -30 -31 0
18 -22 30 -31 0
18 -22 -30 31 0
-18 22 30 -31 0
-18 22 -30 31 0
-18 -22 30 31 0
-18 -22 -30 -31 0
3 25 32 33 0
3 25 -32 -33 0
3 -25 32 -33 0
3 -25 -32 33 0
-3 25 32 -33 0
-3 25 -32 33 0
-3 -25 32 33 0
-3 -25 -32 -33 0
19 34 35 36 0
19 34 -35 -36 0
19 -34 35 -36 0
19 -34 -35 36 0
-19 34 35 -36 0
-19 34 -35 36 0
-19 -34 35 36 0
-19 -34 -35 -36 0
8 14 28 37 0
8 14 -28 -37 0
8 -14 28 -37 0
8 -14 -28 37 0
-8 14 28 -37 0
-8 14 -28 37 0
-8 -14 28 37 0
-8 -14 -28 -37 0
20 26 30 -38 0
20 26 -30 38 0
20 -26 30 38 0
20 -26 -30 -38 0
-20 26 30 38 0
-20 26 -30 -38 0
-20 -26 30 -38 0
-20 -26 -30 38 0
15 29 32 -34 0
15 29 -32 34 0
15 -29 32 34 0
15 -29 -32 -34 0
-15 29 32 34 0
-15 29 -32 -34 0
-15 -29 32 -34 0
-15 -29 -32 34 0
31 33 35 -37 0
31 33 -35 37 0
31 -33 35 37 0
31 -33 -35 -37 0
-31 33 35 37 0
-31 33 -35 -37 0
-31 -33 35 -37 0
-31 -33 -35 37 0
4 27 36 38 0
4 27 -36 -38 0
4 -27 36 -38 0
4 -27 -36 38 0
-4 27 36 -38 0
-4 27 -36 38 0
-4 -27 36 38 0
-4 -27 -36 -38 0
